740.66 0
0 67 34 46 8 52 4 0
0 45 29 5 37 20 70 60 71 69 36 47 48 0
0 12 72 31 55 25 50 18 24 49 16 6 0
0 53 11 66 65 38 10 58 0
0 51 3 44 32 9 39 40 17 0
0 73 1 22 64 42 43 41 56 23 63 33 0
0 26 7 35 14 59 19 54 13 57 15 27 0
0 68 2 62 28 61 21 74 30 75 0
